row=10;
column=10;
Board=[|0,2,0,0,0,0,1,0,0,0|0,0,0,0,0,0,0,0,0,0|0,3,0,0,0,0,0,1,0,0|0,0,0,0,0,0,0,0,0,0|0,0,0,0,0,0,0,0,0,0|0,0,0,0,0,0,0,0,0,0|0,0,0,0,0,0,0,0,4,0|0,0,0,0,0,0,0,0,0,0|0,0,0,0,0,0,0,0,0,0|0,0,0,0,0,0,0,0,0,0|];
right = [3,2,2,0,6,1,4,1,1,0];
bottom = [4,3,0,1,0,1,4,2,2,3];
